40 40
20
3 3 34 37
3 4 37 36
3 5 37 31
3 6 37 25
3 7 37 18
3 8 37 10
3 9 34 28
3 10 37 0
3 12 34 16
3 16 34 0
3 40 31 0
4 4 27 36
4 14 27 22
4 22 27 0
5 3 22 37
5 4 22 33
5 8 22 25
5 12 22 13
5 13 22 0
22 40 0 0
